
c turning on binary mode checking

c parsing input formula with 6580 variables and 27266 clauses

c finished parsing, read 8541 bytes from proof file

c detected empty clause; start verification via backward checking

c 1592 of 27266 clauses in core                            

c 83 of 1936 lemmas in core using 9699 resolution steps

c 0 RAT lemmas in core; 1 redundant literals in core lemmas

s VERIFIED

c verification time: 0.058 seconds
